#p rovgf units=bohr 6-311G**  iop(9/11=10110,9/33=1)

Gaussian Test Job 398:
Water P3-OVGF

0 1
 O .00000000     .00000000     .00000000
 h1 .00000000    1.43143090    1.10833220
 h2 .00000000   -1.43143090    1.10833220

 2 5


 
