# HF/6-31G* Test

test175 -- No Title Specified --

     0     1
 C
 O,1,R2
 H,1,R3,2,A3
 H,1,R4,2,A4,3,D4,0
 H,1,R4,2,A4,3,-D4,0
 H,2,R6,1,A6,3,180.,0
      Variables:
 R2=1.43
 R3=1.09000003
 R4=1.0899997
 R6=0.9600003
 A3=109.47120158
 A4=109.47120763
 A6=109.47121427
 D4=-120.00001111

