%mem=3000000
#P ROVGF/6-31G* iop(9/11=100) test

Gaussian Test Job 307:
OVGF for electron affinities

 0 1
o
h1 o r
h2 o r h1 an

r  1.05
an 105.

  4 6

